n_res = 4;
rc = [ 14, 12, 15, 18 ];
n_tasks = 30;
d = [ 2, 1, 3, 10, 10, 2, 2, 3, 3, 3, 4, 8, 2, 2, 1, 2, 7, 7, 3, 3, 8, 4, 8, 10, 5, 3, 5, 6, 8, 1 ];
rr = [| 7, 6, 0, 0, 0, 0, 0, 0, 0, 2, 0, 0, 0, 5, 0, 0, 0, 0, 0, 0, 0, 0, 0, 10, 0, 0, 5, 1, 0, 6
      | 0, 0, 1, 0, 0, 0, 0, 3, 0, 0, 0, 8, 0, 0, 10, 0, 10, 3, 0, 3, 0, 0, 0, 0, 4, 0, 0, 0, 0, 0
      | 0, 0, 0, 4, 0, 0, 8, 0, 0, 0, 0, 0, 0, 0, 0, 0, 0, 0, 6, 0, 4, 0, 0, 0, 0, 0, 0, 0, 3, 0
      | 0, 0, 0, 0, 4, 3, 0, 0, 8, 0, 1, 0, 8, 0, 0, 9, 0, 0, 0, 0, 0, 9, 1, 0, 0, 10, 0, 0, 0, 0 |];
suc = [ { 2 }, 
        { 3 }, 
        { 4 }, 
        { 5 }, 
        { 6 }, 
        { 7 }, 
        { 8 }, 
        { 9 }, 
        { 10 }, 
        { 11 }, 
        { 12 }, 
        { 13 }, 
        { 14 }, 
        { 15 }, 
        { 16 }, 
        { 17 }, 
        { 18 }, 
        { 19 }, 
        { 20 }, 
        { 21 }, 
        { 22 }, 
        { 23 }, 
        { 24 }, 
        { 25 }, 
        { 26 }, 
        { 27 }, 
        { 28 }, 
        { 29 }, 
        { 30 }, 
        {  }]; 
